@RELATION dam_risk_forecast_7days
@ATTRIBUTE capacity NUMERIC
@ATTRIBUTE storage NUMERIC
@ATTRIBUTE active_storage NUMERIC
@ATTRIBUTE dead_storage NUMERIC
@ATTRIBUTE volume NUMERIC
@ATTRIBUTE percent_storage NUMERIC
@ATTRIBUTE inflow NUMERIC
@ATTRIBUTE outflow NUMERIC
@ATTRIBUTE inflow_pct NUMERIC
@ATTRIBUTE outflow_pct NUMERIC
@ATTRIBUTE month NUMERIC
@ATTRIBUTE id {'100104','100105','100106','100107','100108','100201','100202','100206','100207','100208','100209','100210','100211','100301','100302','100303','100501','100502','100503','100504','100505','100514','100602','200101','200102','200103','200203','200204','200205','200212','200401','200402','200601','200603','200604'}
@ATTRIBUTE name {'เขื่อนกระเสียว','เขื่อนกิ่วคอหมา','เขื่อนกิ่วลม','เขื่อนขุนด่านปราการชล','เขื่อนคลองสียัด','เขื่อนจุฬาภรณ์','เขื่อนทับเสลา','เขื่อนนฤบดินทรจินดา','เขื่อนน้ำพุง','เขื่อนน้ำอูน','เขื่อนบางพระ','เขื่อนบางลาง','เขื่อนประแสร์','เขื่อนปราณบุรี','เขื่อนป่าสักชลสิทธิ์','เขื่อนภูมิพล','เขื่อนมูลบน','เขื่อนรัชชประภา','เขื่อนลำตะคอง','เขื่อนลำนางรอง','เขื่อนลำปาว','เขื่อนลำพระเพลิง','เขื่อนลำแชะ','เขื่อนวชิราลงกรณ','เขื่อนศรีนครินทร์','เขื่อนสิริกิติ์','เขื่อนสิรินธร','เขื่อนหนองปลาไหล','เขื่อนห้วยหลวง','เขื่อนอุบลรัตน์','เขื่อนแก่งกระจาน','เขื่อนแควน้อยบำรุงแดน','เขื่อนแม่กวงอุดมธารา','เขื่อนแม่งัดสมบูรณ์ชล','เขื่อนแม่มอก'}
@ATTRIBUTE region {'ภาคกลาง','ภาคตะวันตก','ภาคตะวันออก','ภาคตะวันออกเฉียงเหนือ','ภาคเหนือ','ภาคใต้'}
@ATTRIBUTE owner {'กรมชลประทาน','การไฟฟ้า'}
@ATTRIBUTE risk_class_7d {drought,normal,flood}
@DATA
